(declare-const |y':56| Int)
(declare-const havoc Int)
(declare-const |K:66| Int)
(declare-const |x':55| Int)
(declare-const |c':57| Int)
(declare-const |havoc:2| Int)
(assert (and (<= (- havoc) 0) (<= (- |havoc:2|) 0)
               (or (not (<= (- |K:66|) 0)) (= (+ |c':57| (- |K:66|) -1) 0))
               (or (and (= |K:66| 0) (= (+ (- |c':57|) 1) 0)
                          (= (+ (- |y':56|) havoc) 0) (= (+ (- |x':55|) 1) 0))
                     (and (<= (+ (- |K:66|) 1) 0) (<= (+ (- |havoc:2|) 2) 0)
                            (<= (- havoc) 0) (<= (+ |c':57| (- |havoc:2|)) 0)
                            (<= (- havoc) 0) (<= (+ (- |c':57|) 2) 0)))
               (<= (- |K:66|) 0) (< (- |c':57|) 0) (<= (- |havoc:2|) 0)
               (<= (- havoc) 0)
               (not (= (+ (- |x':55|) (- |y':56|) (* |x':55| havoc) 1) 0))))
(check-sat)
